c turning on binary mode checking
c parsing input formula with 259840 variables and 1039924 clauses
c finished parsing, read 2960822 bytes from proof file
c detected empty clause; start verification via backward checking
c 901 of 1039924 clauses in core                            
c 237 of 118563 lemmas in core using 1900 resolution steps
c 0 RAT lemmas in core; 2 redundant literals in core lemmas
s VERIFIED
c verification time: 1.222 seconds
